(set-logic QF_UF)
(declare-fun A0 () Bool)
(declare-fun A1 () Bool)
(declare-fun A3 () Bool)
(declare-fun A4 () Bool)
(declare-fun A5 () Bool)
(declare-fun A6 () Bool)
(declare-fun A7 () Bool)
(declare-fun A8 () Bool)
(declare-fun A9 () Bool)
(declare-fun A10 () Bool)
(declare-fun A12 () Bool)
(declare-fun A13 () Bool)
(declare-fun A14 () Bool)
(declare-fun A15 () Bool)
(declare-fun A16 () Bool)
(declare-fun A17 () Bool)
(declare-fun A18 () Bool)
(declare-fun A19 () Bool)
(declare-fun A20 () Bool)
(declare-fun A22 () Bool)
(declare-fun A23 () Bool)
(declare-fun A24 () Bool)
(assert (let ((.def_0 (= A19 A18))) (let ((.def_1 (not A4))) (let ((.def_2 (or A14 .def_1))) (let ((.def_3 (not .def_2))) (let ((.def_4 (and .def_3 .def_0))) (let ((.def_5 (not .def_4))) (let ((.def_6 (and A16 A16))) (let ((.def_7 (not .def_6))) (let ((.def_8 (not A23))) (let ((.def_9 (not A1))) (let ((.def_10 (and .def_9 .def_8))) (let ((.def_11 (not .def_10))) (let ((.def_12 (or .def_11 .def_7))) (let ((.def_13 (not .def_12))) (let ((.def_14 (and .def_13 .def_5))) (let ((.def_15 (not A0))) (let ((.def_16 (and .def_15 A23))) (let ((.def_17 (not A12))) (let ((.def_18 (= .def_9 .def_17))) (let ((.def_19 (and .def_18 .def_16))) (let ((.def_20 (not .def_19))) (let ((.def_21 (not A20))) (let ((.def_22 (or A12 .def_21))) (let ((.def_23 (not .def_22))) (let ((.def_24 (not A5))) (let ((.def_25 (or .def_24 A13))) (let ((.def_26 (not .def_25))) (let ((.def_27 (or .def_26 .def_23))) (let ((.def_28 (not .def_27))) (let ((.def_29 (and .def_28 .def_20))) (let ((.def_30 (and .def_29 .def_14))) (let ((.def_31 (not A14))) (let ((.def_32 (or .def_31 .def_24))) (let ((.def_33 (or A12 A1))) (let ((.def_34 (not .def_33))) (let ((.def_35 (and .def_34 .def_32))) (let ((.def_36 (not .def_35))) (let ((.def_37 (not A8))) (let ((.def_38 (not A22))) (let ((.def_39 (= .def_38 .def_37))) (let ((.def_40 (not A13))) (let ((.def_41 (and .def_40 .def_8))) (let ((.def_42 (not .def_41))) (let ((.def_43 (and .def_42 .def_39))) (let ((.def_44 (or .def_43 .def_36))) (let ((.def_45 (not .def_44))) (let ((.def_46 (and A0 .def_31))) (let ((.def_47 (not A18))) (let ((.def_48 (and A5 .def_47))) (let ((.def_49 (not .def_48))) (let ((.def_50 (or .def_49 .def_46))) (let ((.def_51 (not .def_50))) (let ((.def_52 (not A6))) (let ((.def_53 (= A16 .def_52))) (let ((.def_54 (not A10))) (let ((.def_55 (and A12 .def_54))) (let ((.def_56 (not .def_55))) (let ((.def_57 (and .def_56 .def_53))) (let ((.def_58 (and .def_57 .def_51))) (let ((.def_59 (or .def_58 .def_45))) (let ((.def_60 (or .def_59 .def_30))) (let ((.def_61 (not .def_60))) (let ((.def_62 (not A24))) (let ((.def_63 (and .def_38 .def_62))) (let ((.def_64 (not A7))) (let ((.def_65 (not A16))) (let ((.def_66 (and .def_65 .def_64))) (let ((.def_67 (not .def_66))) (let ((.def_68 (or .def_67 .def_63))) (let ((.def_69 (not .def_68))) (let ((.def_70 (= .def_8 A13))) (let ((.def_71 (not .def_70))) (let ((.def_72 (or A10 A16))) (let ((.def_73 (not .def_72))) (let ((.def_74 (= .def_73 .def_71))) (let ((.def_75 (not .def_74))) (let ((.def_76 (or .def_75 .def_69))) (let ((.def_77 (not A17))) (let ((.def_78 (and .def_77 .def_38))) (let ((.def_79 (or A1 A22))) (let ((.def_80 (and .def_79 .def_78))) (let ((.def_81 (not .def_80))) (let ((.def_82 (or .def_40 .def_8))) (let ((.def_83 (and .def_1 A18))) (let ((.def_84 (not .def_83))) (let ((.def_85 (and .def_84 .def_82))) (let ((.def_86 (not .def_85))) (let ((.def_87 (= .def_86 .def_81))) (let ((.def_88 (not .def_87))) (let ((.def_89 (and .def_88 .def_76))) (let ((.def_90 (and A15 .def_54))) (let ((.def_91 (not .def_90))) (let ((.def_92 (= .def_24 .def_24))) (let ((.def_93 (or .def_92 .def_91))) (let ((.def_94 (not .def_93))) (let ((.def_95 (and .def_21 .def_47))) (let ((.def_96 (not .def_95))) (let ((.def_97 (= .def_47 A23))) (let ((.def_98 (not .def_97))) (let ((.def_99 (or .def_98 .def_96))) (let ((.def_100 (or .def_99 .def_94))) (let ((.def_101 (not .def_100))) (let ((.def_102 (and A16 A17))) (let ((.def_103 (not .def_102))) (let ((.def_104 (and A3 A20))) (let ((.def_105 (= .def_104 .def_103))) (let ((.def_106 (not .def_105))) (let ((.def_107 (not A9))) (let ((.def_108 (or A24 .def_107))) (let ((.def_109 (not .def_108))) (let ((.def_110 (and A6 .def_47))) (let ((.def_111 (not .def_110))) (let ((.def_112 (and .def_111 .def_109))) (let ((.def_113 (not .def_112))) (let ((.def_114 (= .def_113 .def_106))) (let ((.def_115 (or .def_114 .def_101))) (let ((.def_116 (not .def_115))) (let ((.def_117 (or .def_116 .def_89))) (let ((.def_118 (not .def_117))) (let ((.def_119 (= .def_118 .def_61))) .def_119)))))))))))))))))))))))))))))))))))))))))))))))))))))))))))))))))))))))))))))))))))))))))))))))))))))))))))))))))))))))))
(check-sat)
